120 127
2 7 
2 7 
2 7 
2 7 
2 7 
2 7 
2 7 
2 7 
2 7 
4 5 
4 5 
4 5 
4 5 
4 5 
4 5 
4 5 
4 5 
4 5 
19 32 
19 32 
19 32 
19 32 
19 32 
19 32 
19 32 
12 4 
12 4 
12 4 
8 2 
8 2 
8 2 
15 5 
15 5 
15 5 
15 5 
6 11 
6 11 
5 10 
5 10 
5 10 
7 18 
7 18 
4 8 
4 8 
4 8 
4 8 
4 8 
4 8 
4 8 
2 3 
2 3 
2 3 
2 3 
2 3 
2 3 
2 3 
2 3 
2 3 
10 29 
10 29 
4 26 
4 26 
4 26 
4 26 
4 26 
2 20 
2 20 
2 20 
2 20 
2 20 
15 28 
15 28 
15 28 
15 28 
15 28 
15 28 
15 28 
15 28 
2 17 
2 17 
2 17 
2 17 
2 17 
2 17 
2 17 
9 12 
9 12 
9 12 
9 22 
9 22 
9 22 
9 22 
9 22 
9 22 
12 26 
12 26 
12 26 
12 26 
12 26 
14 10 
4 2 
19 5 
19 5 
19 5 
19 5 
19 5 
19 5 
19 5 
15 27 
15 27 
15 27 
15 27 
15 27 
12 9 
12 9 
12 9 
37 14 
37 14 
37 14 
37 14 
